(declare-sort $$unsorted 0)
(declare-fun tptp.op ($$unsorted $$unsorted) $$unsorted)
(assert (forall ((X0 $$unsorted) (X1 $$unsorted)) (= X0 (tptp.op X0 (tptp.op X0 (tptp.op X0 X1))))))
(assert (not (forall ((X0 $$unsorted) (X1 $$unsorted)) (= X0 (tptp.op (tptp.op X0 (tptp.op X0 (tptp.op X0 X1))) X0)))))
(set-info :filename Equation48_implies_Equation2240)
(check-sat-assuming ( true ))
